;; unsat

(declare-const x1 sl.list.loc)
(declare-const x2 sl.list.loc)
(declare-const x3 sl.list.loc)
(declare-const x4 sl.list.loc)
(declare-const x5 sl.list.loc)
(declare-const x6 sl.list.loc)
(declare-const x7 sl.list.loc)
(declare-const x8 sl.list.loc)
(declare-const x9 sl.list.loc)
(declare-const x10 sl.list.loc)
(declare-const x11 sl.list.loc)
(declare-const x12 sl.list.loc)
(declare-const x13 sl.list.loc)

(assert (and (sl.sepcon (sl.list.eq sl.list.null sl.list.null)
 (sl.sepcon (sl.sepcon (sl.sepcon (sl.sepcon (sl.sepcon (sl.sepcon (sl.sepcon (sl.sepcon (sl.sepcon (sl.sepcon (sl.sepcon (sl.sepcon (sl.list.next x2 x6)
 (sl.list.next x4 x1)
)
 (sl.list.next x11 x8)
)
 (sl.list.seg x1 x3)
)
 (sl.list.next x13 x6)
)
 (sl.list.next x8 x6)
)
 (sl.list.next x3 x7)
)
 (sl.list.next x7 x3)
)
 (sl.list.next x6 x2)
)
 (sl.list.seg x12 x7)
)
 (sl.list.seg x10 x11)
)
 (sl.list.next x9 x2)
)
 (sl.list.seg x5 x11)
)
)
 (not (sl.sepcon (sl.sepcon (sl.sepcon (sl.sepcon (sl.sepcon (sl.sepcon (sl.sepcon (sl.list.seg x4 x1)
 (sl.list.seg x9 x6)
)
 (sl.list.seg x5 x11)
)
 (sl.list.seg x12 x3)
)
 (sl.list.seg x13 x6)
)
 (sl.list.seg x10 x11)
)
 (sl.list.seg x1 x7)
)
 (sl.list.seg x11 x2)
)
))
)

